p cnf 10 45
2 7 3 0
9 2 -7 0
-7 8 6 0
5 6 1 0
-3 4 -7 0
2 10 4 0
1 9 2 0
-5 8 -10 0
4 6 8 0
5 1 8 0
-9 1 3 0
-3 4 7 0
-6 -7 10 0
-6 2 7 0
2 -6 9 0
4 1 7 0
-7 2 -4 0
-9 -7 10 0
-9 3 -5 0
1 8 10 0
8 -9 -7 0
-2 1 -10 0
-1 -2 -6 0
-9 4 10 0
7 4 -1 0
-10 5 8 0
-7 4 -10 0
8 2 10 0
-9 10 3 0
3 5 -4 0
4 -1 6 0
6 2 10 0
9 6 -3 0
-5 -2 -1 0
5 -4 9 0
8 -7 -4 0
7 -3 -8 0
-8 -4 -6 0
4 -8 1 0
-1 10 -5 0
8 1 -2 0
2 5 6 0
9 7 8 0
10 -9 1 0
10 -6 9 0
